%chk=benzene_rhf.chk
%mem=220GB
%nprocshared=28
#p  RHF/STO-3G Pop=Full Nosymm

benzene RHF job to obtain orbitals 

0 1
 C                 -0.78101076   -0.74272587    0.00000000
 C                  0.61414924   -0.74272587    0.00000000
 C                  1.31168724    0.46502513    0.00000000
 C                  0.61403324    1.67353413   -0.00119900
 C                 -0.78079176    1.67345613   -0.00167800
 C                 -1.47839276    0.46525013   -0.00068200
 H                 -1.33076976   -1.69504287    0.00045000
 H                  1.16365724   -1.69523887    0.00131500
 H                  2.41136724    0.46510513    0.00063400
 H                  1.16423324    2.62567713   -0.00125800
 H                 -1.33091376    2.62573713   -0.00263100
 H                 -2.57799676    0.46543313   -0.00086200

